WARNING: for repeatability, setting FPU to use double precision
============================[ Problem Statistics ]=============================
|                                                                             |
|  Number of variables:        383542                                         |
|  Number of clauses:          925003                                         |
|  Parse time:                   0.30 s                                       |
|                                                                             |
============================[ Search Statistics ]==============================
| Conflicts |          ORIGINAL         |          LEARNT          | Progress |
|           |    Vars  Clauses Literals |    Limit  Clauses Lit/Cl |          |
===============================================================================
|       100 |  217476   892913  2003902 |   327401      100     59 | 43.298 % |
|       250 |  217476   892913  2003902 |   360141      250     40 | 43.298 % |
|       475 |  217476   892913  2003902 |   396155      475     36 | 43.298 % |
|       812 |  217476   892913  2003902 |   435771      812     40 | 43.298 % |
|      1318 |  217476   892913  2003902 |   479348     1318     46 | 43.298 % |
|      2077 |  217476   892913  2003902 |   527283     2077     55 | 43.298 % |
|      3216 |  217476   892913  2003902 |   580011     3216     82 | 43.298 % |
|      4924 |  217476   892913  2003902 |   638012     4924     80 | 43.298 % |
|      7486 |  217476   892913  2003902 |   701814     7486     82 | 43.298 % |
|     11330 |  217476   892913  2003902 |   771995    11330     85 | 43.298 % |
|     17096 |  217476   892913  2003902 |   849194    17096    103 | 43.298 % |
|     25745 |  217476   892913  2003902 |   934114    25745    104 | 43.298 % |
|     38719 |  217476   892913  2003902 |  1027525    38719    112 | 43.298 % |
|     58180 |  217476   892913  2003902 |  1130278    58180    109 | 43.298 % |
===============================================================================
restarts              : 218
conflicts             : 69349          (1104 /sec)
decisions             : 484582         (0.00 % random) (7714 /sec)
propagations          : 334910646      (5331620 /sec)
conflict literals     : 7443407        (17.25 % deleted)
Memory used           : 126.00 MB
CPU time              : 62.8159 s

SATISFIABLE
